n = 75;
m = 7;
p = [12, 9, 14, 11, 13, 8, 8];
v = [0.05, 0.14, 0.2, 0.3, 0.45, 0.65, 0.9];
ce = [12.3, 8.1, 7.8, 9.4, 10.3, 6.5, 11.9];
c = [|0, 2.4, 1.3, 3.5, 2.9, 1.7, 2.8|3.2, 0, 3.5, 4.2, 2.7, 1.6, 3.8|1.4, 2.9, 0, 2.3, 3.5, 4.1, 1.7|3.8, 2.3, 3.7, 0, 4.2, 1.3, 3.4|2.6, 1.9, 2.8, 3.4, 0, 3.3, 2.1|3.4, 1.7, 4.2, 2.6, 3.3, 0, 1.9|4.1, 2.1, 3.5, 1.9, 2.4, 3.6, 0|];
ct = 22.5;
maxM = 10;
